(set-logic QF_S)
(declare-fun var0 () String)
(declare-fun var1 () String)
(declare-fun var2 () String)
(declare-fun var3 () String)
(declare-fun var4 () String)
(declare-fun var5 () Int)
(declare-fun var6 () Int)
(declare-fun var7 () Int)
(declare-fun var8 () Int)
(declare-fun var9 () Int)
(declare-fun var10 () Bool)
(declare-fun var11 () Bool)
(declare-fun var12 () Bool)
(declare-fun var13 () Bool)
(declare-fun var14 () Bool)
(assert (< (str.len var3) (str.len var2)))
(assert (not (> 9 var7)))
(assert (> (str.indexof var4 var1) (str.indexof var3 var4)))
(assert (<= (str.indexof var1 var4) (str.len var1)))
(assert (not var10))
(assert (not var12))
(assert (str.in.re (str.replace var0 var1 var0) (re.+ re.allchar)))
(assert (<= (str.len "9RQ++8^""B%") (str.indexof var1 var2)))
(assert (str.contains var4 var2))
(assert (> var5 var6))
(check-sat)
